Minimize
3.1x1 + 3.2x2 + 3.11x3 + 3.14x4 + 2.9x5 + 3.04x6 + 3.03x7
subject to
x1 + z1,1 + z1,4 = 1
x2 + z2,1 + z2,3 = 1
x4 + z4,1 + z4,2 = 1
x5 + z5,2 + z5,4 = 1
x6 + z6,2 + z6,3 = 1
z1,1 + z2,1 + z4,1 = 1
z4,2 + z5,2 + z6,2 = 1
x1 + x2 + x3 = 2
x1 + x4 + x5 = 2
x2 + x4 + x6 = 2
x5 + x6 + x7 = 2
x3 + x7 = 2
bounds
x1 >= 0
x2 >= 0
x3 >= 0
x4 >= 0
x5 >= 0
x6 >= 0
x7 >= 0
z1,1 >= 0
z1,4 >= 0
z2,1 >= 0
z2,3 >= 0
z4,1 >= 0
z4,2 >= 0
z5,2 >= 0
z5,4 >= 0
z6,2 >= 0
z6,3 >= 0
